# Frequencies of occurrence of Ts and Fs: 'T F'

1 0
1 0
1 1
1 1
1 1
3 4
3 4
3 4
11 17
11 17
11 17
45 72
45 72
45 72
189 305
189 305
189 305
799 1292
799 1292
799 1292
3383 5473
3383 5473
3383 5473
14329 23184
14329 23184
14329 23184

# Frequencies of TF, TFF, TFF:
0 0 0
0 0 0
0 0 0
0 0 0
0 0 0
2 0 0
2 0 0
2 0 0
6 3 1
6 4 0
5 4 1
22 15 6
24 14 6
23 15 5
94 74 20
94 74 20
93 75 20
414 275 108
410 283 105
410 283 105
1726 1200 440
1731 1212 438
1720 1232 429 (Upto n = 26)
